data;
param nombreJob := 5;
param nombreRessource := 3;
param duree := 1 10 2 8 3 2 4 3 5 7;
param capaciteRessource := 1 7 2 9 3 16;
param besoinRessource : 1 2 3 :=
                    1   2 1 10
                    2   3 2 7
                    3   4 7 4
                    4   2 8 9
                    5   3 3 10;
end;

